214
554
800
918
1026
1096
1142
1184
1223
1268
1304
1324
1338
1356
1377
1391
1410
1423
1445
1462
1487
1503
1520
1539
1562
1579
1598
1605
1606
1613
1616
1626
1631
1642
1664
1678
1690
1696
1705
1716
1716
1716
1716
1716
1716
1716
1716
1716
1716
1716
1716
1716
1716
1716
1716
1716
1716
1716
1716
1716
1716
1716
1716
1716
1716
1716
1716
1716
1716
1716
1716
1716
1716
1716
1716
1716
1716
1716
1716
1716
1716
1716
1716
1716
1716
1716
1716
1716
1716
1716
1716
1716
1716
1716
1716
1716
1716
1716
1716
